tsp_instances/TSP20/instance125.tsp
NODE_COORD_SECTION
0 121 22
1 35 126
2 39 69
3 20 6
4 171 127
5 31 190
6 90 63
7 26 4
8 103 65
9 191 42
10 174 93
11 168 171
12 24 58
13 134 145
14 191 146
15 164 124
16 168 3
17 47 60
18 92 110
19 118 48
