tsp_instances/TSP20/instance125.opt.tour
TOUR_SECTION
1
17
10
11
16
5
15
12
14
19
6
2
3
18
13
4
8
7
9
20
-1